20
1 0 13
2 0 7
2 1 17
3 0 13
3 1 18
3 2 17
4 0 7
4 1 10
4 2 13
4 3 8
5 2 13
5 4 5
6 0 17
6 1 20
6 2 14
6 3 2
6 4 8
7 0 14
7 3 10
7 4 9
7 6 4
8 0 1
8 2 6
8 3 17
8 5 4
8 6 6
8 7 13
9 1 19
9 2 17
9 3 14
9 4 6
9 5 14
9 6 12
9 8 4
10 1 11
10 3 18
10 4 19
10 5 20
10 6 2
10 7 20
10 8 16
10 9 1
11 0 1
11 1 20
11 2 19
11 3 16
11 4 18
11 5 16
11 6 4
11 8 11
11 10 13
12 0 8
12 1 20
12 2 18
12 3 9
12 6 16
12 7 19
12 8 17
12 9 15
12 10 8
12 11 1
13 0 7
13 1 10
13 3 6
13 4 4
13 5 19
13 6 12
13 7 4
13 8 6
13 9 14
13 10 15
13 11 16
13 12 14
14 0 17
14 1 3
14 2 17
14 3 19
14 4 19
14 5 1
14 7 8
14 9 19
14 11 2
14 13 3
15 0 7
15 1 17
15 2 9
15 3 14
15 5 7
15 6 16
15 9 17
15 10 15
15 11 15
15 12 6
15 13 20
15 14 12
16 0 5
16 3 17
16 4 20
16 6 7
16 7 10
16 9 6
16 10 7
16 11 8
16 13 18
16 14 17
17 0 9
17 1 2
17 2 10
17 4 20
17 5 4
17 6 9
17 8 18
17 9 7
17 11 7
17 13 20
17 14 12
17 15 11
17 16 14
18 0 5
18 1 18
18 2 14
18 4 4
18 5 8
18 6 20
18 7 1
18 8 9
18 9 5
18 12 19
18 13 3
18 15 2
18 16 2
18 17 13
19 0 7
19 3 15
19 9 9
19 10 12
19 11 20
19 13 14
19 14 7
19 16 20
19 17 15
